; benchmark generated from python API
(set-info :status unknown)
(declare-fun R_E1_V4 () Bool)
(declare-fun W_S1_V4 () Bool)
(declare-fun R_E1_V5 () Bool)
(declare-fun W_S1_V5 () Bool)
(declare-fun W_S2_V5 () Bool)
(declare-fun W_S2_V2 () Bool)
(declare-fun W_S2_V3 () Bool)
(declare-fun W_S2_V1 () Bool)
(declare-fun R_S2_V4 () Bool)
(declare-fun R_S2_V5 () Bool)
(declare-fun R_S2_V2 () Bool)
(declare-fun R_S2_V3 () Bool)
(declare-fun R_S2_V1 () Bool)
(declare-fun R_S1_V4 () Bool)
(declare-fun R_S1_V5 () Bool)
(declare-fun R_S1_V2 () Bool)
(declare-fun R_S1_V3 () Bool)
(declare-fun R_S1_V1 () Bool)
(declare-fun R_E1_V2 () Bool)
(declare-fun DISJ_W_S2_R_E1 () Bool)
(declare-fun DISJ_W_S2_R_S2 () Bool)
(declare-fun DISJ_W_S2_R_S1 () Bool)
(declare-fun DISJ_W_S1_W_S2 () Bool)
(declare-fun R_E1_V3 () Bool)
(declare-fun DISJ_W_S1_R_S2 () Bool)
(declare-fun DISJ_W_S1_R_S1 () Bool)
(declare-fun W_S2_V4 () Bool)
(declare-fun W_S1_V3 () Bool)
(declare-fun W_S1_V2 () Bool)
(declare-fun W_S1_V1 () Bool)
(declare-fun R_E1_V1 () Bool)
(declare-fun DISJ_W_S1_R_E1 () Bool)
(assert
 (let (($x1340 (not (and W_S1_V4 R_E1_V4))))
 (let (($x233 (not (and W_S1_V5 R_E1_V5))))
 (let (($x3131 (forall ((V3_0 Int) )(forall ((V2_0 Int) )(forall ((V5_0 Int) )(forall ((V4_0 Int) )(forall ((MW_S1_V1 Bool) )(forall ((MW_S1_V3 Bool) )(forall ((MW_S1_V2 Bool) )(forall ((MW_S1_V5 Bool) )(forall ((MW_S1_V4 Bool) )(forall ((MW_S2_V1 Bool) )(forall ((MW_S2_V3 Bool) )(forall ((MW_S2_V2 Bool) )(forall ((MW_S2_V5 Bool) )(forall ((MW_S2_V4 Bool) )(forall ((S1_V1_!1516 Int) )(forall ((S1_V1_!1527 Int) )(forall ((S1_V1_!1532 Int) )(forall ((S2_V5_!1524 Int) )(forall ((S2_V5_!1541 Int) )(forall ((S1_V3_!1517 Int) )(forall ((S1_V3_!1528 Int) )(forall ((S1_V3_!1533 Int) )(forall ((S1_V2_!1518 Int) )(forall ((S1_V2_!1529 Int) )(forall ((S1_V2_!1534 Int) )(forall ((E1_!1515 Int) )(forall ((E1_!1526 Int) )(forall ((E1_!1537 Int) )(forall ((S2_V4_!1525 Int) )(forall ((S2_V4_!1542 Int) )(forall ((S1_V5_!1519 Int) )(forall ((S1_V5_!1530 Int) )(forall ((S1_V5_!1535 Int) )(forall ((S2_V1_!1521 Int) )(forall ((S2_V1_!1538 Int) )(forall ((S1_V4_!1520 Int) )(forall ((S1_V4_!1531 Int) )(forall ((S1_V4_!1536 Int) )(forall ((S2_V2_!1523 Int) )(forall ((S2_V2_!1540 Int) )(forall ((S2_V3_!1522 Int) )(forall ((S2_V3_!1539 Int) )(let (($x5968 (= (ite MW_S2_V4 S2_V4_!1525 (ite MW_S1_V4 S1_V4_!1520 V4_0)) (ite MW_S2_V4 S2_V4_!1542 (ite MW_S1_V4 S1_V4_!1536 V4_0)))))
 (let (($x593 (= (ite MW_S2_V5 S2_V5_!1524 (ite MW_S1_V5 S1_V5_!1519 V5_0)) (ite MW_S2_V5 S2_V5_!1541 (ite MW_S1_V5 S1_V5_!1535 V5_0)))))
 (let ((?x747 (ite MW_S1_V2 S1_V2_!1534 V2_0)))
 (let ((?x5166 (ite MW_S2_V2 S2_V2_!1540 ?x747)))
 (let ((?x5435 (ite MW_S1_V2 S1_V2_!1518 V2_0)))
 (let ((?x2388 (ite MW_S2_V2 S2_V2_!1523 ?x5435)))
 (let (($x4248 (= (ite MW_S2_V3 S2_V3_!1522 (ite MW_S1_V3 S1_V3_!1517 V3_0)) (ite MW_S2_V3 S2_V3_!1539 (ite MW_S1_V3 S1_V3_!1533 V3_0)))))
 (let (($x2210 (and (= (ite MW_S2_V1 S2_V1_!1521 (ite MW_S1_V1 S1_V1_!1516 E1_!1515)) (ite MW_S2_V1 S2_V1_!1538 E1_!1537)) $x4248 (= ?x2388 ?x5166) $x593 $x5968)))
 (let (($x2341 (>= (ite MW_S1_V1 S1_V1_!1532 (+ 1 (ite MW_S1_V1 S1_V1_!1527 E1_!1526))) (+ (- 1) ?x747))))
 (let (($x3913 (and (not (<= V2_0 E1_!1515)) (>= (ite MW_S2_V1 S2_V1_!1521 (ite MW_S1_V1 S1_V1_!1516 E1_!1515)) (+ (- 1) ?x2388)) (not (<= V2_0 E1_!1526)) (not (<= (ite MW_S1_V2 S1_V2_!1529 V2_0) (+ 1 (ite MW_S1_V1 S1_V1_!1527 E1_!1526)))) $x2341 (not (<= ?x747 E1_!1537)) (>= (ite MW_S2_V1 S2_V1_!1538 E1_!1537) (+ (- 1) ?x5166)))))
 (let (($x3929 (= S2_V3_!1539 S2_V3_!1522)))
 (let (($x2467 (and (or (not R_S2_V1) (= E1_!1537 (ite MW_S1_V1 S1_V1_!1516 E1_!1515))) (or (not R_S2_V3) (= (ite MW_S1_V3 S1_V3_!1533 V3_0) (ite MW_S1_V3 S1_V3_!1517 V3_0))) (or (not R_S2_V2) (= ?x747 ?x5435)) (or (not R_S2_V5) (= (ite MW_S1_V5 S1_V5_!1535 V5_0) (ite MW_S1_V5 S1_V5_!1519 V5_0))) (or (not R_S2_V4) (= (ite MW_S1_V4 S1_V4_!1536 V4_0) (ite MW_S1_V4 S1_V4_!1520 V4_0))))))
 (let (($x2414 (not $x2467)))
 (let (($x3132 (= S1_V4_!1536 S1_V4_!1531)))
 (let (($x503 (not R_S1_V4)))
 (let (($x1267 (or $x503 (= (ite MW_S1_V4 S1_V4_!1531 V4_0) V4_0))))
 (let (($x3326 (not R_S1_V5)))
 (let (($x3867 (or $x3326 (= (ite MW_S1_V5 S1_V5_!1530 V5_0) V5_0))))
 (let (($x2189 (not R_S1_V2)))
 (let (($x685 (or $x2189 (= (ite MW_S1_V2 S1_V2_!1529 V2_0) V2_0))))
 (let (($x3144 (not R_S1_V3)))
 (let (($x3785 (or $x3144 (= (ite MW_S1_V3 S1_V3_!1528 V3_0) V3_0))))
 (let (($x723 (and (or (not R_S1_V1) (= (ite MW_S1_V1 S1_V1_!1527 E1_!1526) (+ (- 1) E1_!1526))) $x3785 $x685 $x3867 $x1267)))
 (let (($x5802 (not $x723)))
 (let (($x3181 (and (or (not R_S1_V1) (= (ite MW_S1_V1 S1_V1_!1527 E1_!1526) (+ (- 1) E1_!1515))) $x3785 $x685 $x3867 $x1267)))
 (let (($x5982 (not $x3181)))
 (let (($x4184 (or $x503 (= V4_0 (ite MW_S1_V4 S1_V4_!1531 V4_0)))))
 (let (($x1854 (or $x3326 (= V5_0 (ite MW_S1_V5 S1_V5_!1530 V5_0)))))
 (let (($x896 (or $x2189 (= V2_0 (ite MW_S1_V2 S1_V2_!1529 V2_0)))))
 (let (($x2446 (or $x3144 (= V3_0 (ite MW_S1_V3 S1_V3_!1528 V3_0)))))
 (let (($x5992 (and (or (not R_S1_V1) (= E1_!1526 (+ 1 (ite MW_S1_V1 S1_V1_!1527 E1_!1526)))) $x2446 $x896 $x1854 $x4184)))
 (let (($x570 (and (or (not R_S1_V1) (= E1_!1515 (+ 1 (ite MW_S1_V1 S1_V1_!1527 E1_!1526)))) $x2446 $x896 $x1854 $x4184)))
 (let (($x5839 (not $x570)))
 (let (($x3838 (= E1_!1537 E1_!1526)))
 (let (($x166 (and (or (not R_E1_V2) (= ?x747 V2_0)) (or (not R_E1_V5) (= (ite MW_S1_V5 S1_V5_!1535 V5_0) V5_0)) (or (not R_E1_V4) (= (ite MW_S1_V4 S1_V4_!1536 V4_0) V4_0)))))
 (let (($x2365 (and (or (not R_E1_V2) (= V2_0 ?x747)) (or (not R_E1_V5) (= V5_0 (ite MW_S1_V5 S1_V5_!1535 V5_0))) (or (not R_E1_V4) (= V4_0 (ite MW_S1_V4 S1_V4_!1536 V4_0))))))
 (let (($x1689 (= E1_!1515 E1_!1526)))
 (let (($x3008 (and (or (not (or (not R_S1_V1) $x1689)) (= S1_V1_!1516 S1_V1_!1527)) (or $x5839 (= S1_V1_!1516 S1_V1_!1532)) (or $x5802 (= S1_V1_!1532 S1_V1_!1527)) (or $x2414 (= S2_V5_!1541 S2_V5_!1524)) (or (not (or (not R_S1_V1) $x1689)) (= S1_V3_!1517 S1_V3_!1528)) (or $x5982 (= S1_V3_!1533 S1_V3_!1517)) (or $x5802 (= S1_V3_!1533 S1_V3_!1528)) (or (not (or (not R_S1_V1) $x1689)) (= S1_V2_!1518 S1_V2_!1529)) (or $x5982 (= S1_V2_!1534 S1_V2_!1518)) (or $x5802 (= S1_V2_!1534 S1_V2_!1529)) $x1689 (or (not $x2365) (= E1_!1515 E1_!1537)) (or (not $x166) $x3838) (or $x2414 (= S2_V4_!1542 S2_V4_!1525)) (or $x5839 (= S1_V5_!1519 S1_V5_!1535)) (or (not (or (not R_S1_V1) (= E1_!1526 E1_!1515))) (= S1_V5_!1530 S1_V5_!1519)) (or (not $x5992) (= S1_V5_!1530 S1_V5_!1535)) (or $x2414 (= S2_V1_!1538 S2_V1_!1521)) (or (not (or (not R_S1_V1) (= E1_!1526 E1_!1515))) (= S1_V4_!1531 S1_V4_!1520)) (or $x5982 (= S1_V4_!1536 S1_V4_!1520)) (or $x5802 $x3132) (or $x2414 (= S2_V2_!1540 S2_V2_!1523)) (or $x2414 $x3929) (not MW_S1_V1) (not MW_S1_V2) (or (not MW_S1_V5) W_S1_V5) (or (not MW_S1_V4) W_S1_V4) (or (not MW_S2_V1) W_S2_V1) (or (not MW_S2_V3) W_S2_V3) (or (not MW_S2_V2) W_S2_V2) (or (not MW_S2_V5) W_S2_V5))))
 (or (not $x3008) (not $x3913) $x2210))))))))))))))))))))))))))))))))))))))))
 )
 )
 )
 )
 )
 )
 )
 )
 )
 )
 )
 )
 )
 )
 )
 )
 )
 )
 )
 )
 )
 )
 )
 )
 )
 )
 )
 )
 )
 )
 )
 )
 )
 )
 )
 )
 )
 )
 )
 )
 )
 ))
 (let (($x636 (not (or (and W_S2_V2 R_E1_V2) (and W_S2_V5 R_E1_V5) R_E1_V4))))
 (let (($x6000 (= DISJ_W_S2_R_E1 $x636)))
 (let (($x2932 (and W_S2_V5 R_S2_V5)))
 (let (($x1945 (and W_S2_V2 R_S2_V2)))
 (let (($x2749 (and W_S2_V3 R_S2_V3)))
 (let (($x1954 (and W_S2_V1 R_S2_V1)))
 (let (($x5201 (= DISJ_W_S2_R_S2 (not (or $x1954 $x2749 $x1945 $x2932 R_S2_V4)))))
 (let (($x1970 (and W_S2_V5 R_S1_V5)))
 (let (($x2476 (and W_S2_V2 R_S1_V2)))
 (let (($x999 (and W_S2_V3 R_S1_V3)))
 (let (($x4645 (and W_S2_V1 R_S1_V1)))
 (let (($x5594 (= DISJ_W_S2_R_S1 (not (or $x4645 $x999 $x2476 $x1970 R_S1_V4)))))
 (let (($x2407 (= DISJ_W_S1_W_S2 (not (or W_S2_V3 (and W_S1_V5 W_S2_V5) W_S1_V4)))))
 (let (($x2287 (not R_E1_V3)))
 (let (($x3143 (not (or R_S2_V3 (and W_S1_V5 R_S2_V5) (and W_S1_V4 R_S2_V4)))))
 (let (($x3529 (= DISJ_W_S1_R_S2 $x3143)))
 (let (($x419 (not (or R_S1_V3 (and W_S1_V5 R_S1_V5) (and W_S1_V4 R_S1_V4)))))
 (let (($x2677 (= DISJ_W_S1_R_S1 $x419)))
 (let (($x5830 (not W_S1_V2)))
 (let (($x352 (not W_S1_V1)))
 (let (($x1593 (not R_E1_V1)))
 (and DISJ_W_S1_R_E1 $x1593 $x352 $x5830 W_S1_V3 W_S2_V4 $x2677 $x3529 $x2287 $x2407 $x5594 $x5201 $x6000 $x3131 $x233 $x1340))))))))))))))))))))))))))
(check-sat)
